c File: instances/32_0.55_3.col
c
c Description: Random graph of size 32 vertices and P(0.5499999999999999) of edges between any two vertices.
p col 32 496
e 1 3
e 1 7
e 1 8
e 1 9
e 1 10
e 1 13
e 1 18
e 1 19
e 1 20
e 1 21
e 1 23
e 1 24
e 1 26
e 1 29
e 2 3
e 2 4
e 2 5
e 2 6
e 2 8
e 2 9
e 2 10
e 2 12
e 2 14
e 2 17
e 2 18
e 2 19
e 2 21
e 2 22
e 2 23
e 2 24
e 2 25
e 2 26
e 2 28
e 3 6
e 3 10
e 3 11
e 3 12
e 3 13
e 3 15
e 3 16
e 3 17
e 3 19
e 3 23
e 3 24
e 3 25
e 3 27
e 3 30
e 3 32
e 4 6
e 4 7
e 4 11
e 4 13
e 4 16
e 4 17
e 4 18
e 4 19
e 4 21
e 4 22
e 4 24
e 4 26
e 4 28
e 4 29
e 4 30
e 4 32
e 5 9
e 5 11
e 5 12
e 5 13
e 5 14
e 5 17
e 5 18
e 5 19
e 5 20
e 5 21
e 5 22
e 5 23
e 5 24
e 5 25
e 5 26
e 5 28
e 5 29
e 5 31
e 5 32
e 6 7
e 6 9
e 6 10
e 6 11
e 6 12
e 6 14
e 6 15
e 6 17
e 6 18
e 6 24
e 6 25
e 6 29
e 6 31
e 6 32
e 7 13
e 7 14
e 7 17
e 7 21
e 7 22
e 7 23
e 7 24
e 7 27
e 7 28
e 7 29
e 7 30
e 7 32
e 8 10
e 8 12
e 8 14
e 8 16
e 8 18
e 8 19
e 8 21
e 8 22
e 8 23
e 8 28
e 8 29
e 8 31
e 8 32
e 9 11
e 9 13
e 9 14
e 9 16
e 9 20
e 9 21
e 9 22
e 9 25
e 9 27
e 9 28
e 9 29
e 9 30
e 10 13
e 10 15
e 10 18
e 10 21
e 10 22
e 10 23
e 10 24
e 10 25
e 10 27
e 10 28
e 10 29
e 10 30
e 10 31
e 10 32
e 11 12
e 11 13
e 11 14
e 11 17
e 11 18
e 11 22
e 11 24
e 11 25
e 11 30
e 11 31
e 11 32
e 12 15
e 12 19
e 12 20
e 12 22
e 12 24
e 12 26
e 12 27
e 12 29
e 12 30
e 12 32
e 13 14
e 13 17
e 13 18
e 13 20
e 13 21
e 13 23
e 13 28
e 13 30
e 14 17
e 14 25
e 14 26
e 14 27
e 14 28
e 14 29
e 14 30
e 15 16
e 15 18
e 15 19
e 15 20
e 15 22
e 15 24
e 15 25
e 15 28
e 15 29
e 15 30
e 15 32
e 16 18
e 16 20
e 16 23
e 16 24
e 16 25
e 16 28
e 16 29
e 16 32
e 17 18
e 17 19
e 17 21
e 17 22
e 17 23
e 17 24
e 17 26
e 17 27
e 17 28
e 17 29
e 17 31
e 17 32
e 18 19
e 18 20
e 18 23
e 18 25
e 18 26
e 18 27
e 18 28
e 18 30
e 18 31
e 18 32
e 19 21
e 19 22
e 19 23
e 19 28
e 19 31
e 20 21
e 20 22
e 20 23
e 20 26
e 20 29
e 20 30
e 20 31
e 20 32
e 21 22
e 21 23
e 21 24
e 21 25
e 21 27
e 21 28
e 21 31
e 22 23
e 22 27
e 22 30
e 23 26
e 23 27
e 23 28
e 23 30
e 24 26
e 24 28
e 24 29
e 24 30
e 24 31
e 25 27
e 25 29
e 25 32
e 26 28
e 26 31
e 27 30
e 27 32
e 28 29
e 28 32
e 29 30
e 29 31
e 29 32
e 30 31
e 31 32